[2026-03-24T20:47:55.934Z] Pipeline "set_vm-3-t3_vm-3-t3_s014_g001" → 2026_03_24_20_47_55_set_vm-3-t3_vm-3-t3_s014_g001_max.sol
Set parameter Username
Set parameter LicenseID to value 2796068
Set parameter LogFile to value "gurobi.log"
Using license file /opt/gurobi/gurobi.lic
Academic license - for non-commercial use only - expires 2027-03-23

Gurobi Optimizer version 13.0.1 build v13.0.1rc0 (linux64 - "Ubuntu 24.04.4 LTS")
Copyright (c) 2026, Gurobi Optimization, LLC

Warning: Duplicate section found (read 'binary') - Is a variable name equal to an LP file format keyword?
Warning: Duplicate section found (read 'binary') - Is a variable name equal to an LP file format keyword?
Warning: Duplicate section found (read 'binary') - Is a variable name equal to an LP file format keyword?
Warning: Duplicate section found (read 'binary') - Is a variable name equal to an LP file format keyword?
Warning: Duplicate section found (read 'binary') - Is a variable name equal to an LP file format keyword?
Warning: Duplicate section found (read 'binary') - Is a variable name equal to an LP file format keyword?
Warning: Duplicate section found (read 'binary') - Is a variable name equal to an LP file format keyword?
Warning: Duplicate section found (read 'binary') - Is a variable name equal to an LP file format keyword?
Warning: Duplicate section found (read 'binary') - Is a variable name equal to an LP file format keyword?
Warning: Duplicate section found (read 'binary') - Is a variable name equal to an LP file format keyword?
Warning: Further warnings of this type will be omitted.
Read LP format model from file /root/bgw/data/uploads/2026_03_24_20_47_55_set_vm-3-t3_vm-3-t3_s014_g001_max.lp
Reading time = 0.00 seconds
: 4490 rows, 391 columns, 13739 nonzeros

Using Gurobi shared library /opt/gurobi1301/linux64/lib/libgurobi.so.13.0.1

CPU model: AMD EPYC-Genoa Processor, instruction set [SSE2|AVX|AVX2|AVX512]
Thread count: 16 physical cores, 16 logical processors, using up to 16 threads

Optimize a model with 4490 rows, 391 columns and 13739 nonzeros (Max)
Model fingerprint: 0x6c937fc2
Model has 42 linear objective coefficients
Variable types: 66 continuous, 325 integer (325 binary)
Coefficient statistics:
  Matrix range     [1e+00, 2e+01]
  Objective range  [1e+00, 1e+00]
  Bounds range     [1e+00, 1e+00]
  RHS range        [1e+00, 3e+01]

Found heuristic solution: objective 42.0000000
Presolve removed 406 rows and 94 columns
Presolve time: 0.02s
Presolved: 4084 rows, 297 columns, 12378 nonzeros
Variable types: 0 continuous, 297 integer (291 binary)
Found heuristic solution: objective 72.0000000

Root relaxation: objective 2.670000e+02, 198 iterations, 0.01 seconds (0.01 work units)

    Nodes    |    Current Node    |     Objective Bounds      |     Work
 Expl Unexpl |  Obj  Depth IntInf | Incumbent    BestBd   Gap | It/Node Time

     0     0  267.00000    0   40   72.00000  267.00000   271%     -    0s
H    0     0                      87.0000000  267.00000   207%     -    0s
H    0     0                     117.0000000  267.00000   128%     -    0s
     0     0  267.00000    0   41  117.00000  267.00000   128%     -    0s
     0     0  267.00000    0   23  117.00000  267.00000   128%     -    0s
     0     0  267.00000    0   14  117.00000  267.00000   128%     -    0s
     0     0  252.00000    0   20  117.00000  252.00000   115%     -    0s
     0     0  252.00000    0   20  117.00000  252.00000   115%     -    0s
     0     0  252.00000    0   20  117.00000  252.00000   115%     -    0s
     0     0  252.00000    0   20  117.00000  252.00000   115%     -    0s
     0     0  252.00000    0   20  117.00000  252.00000   115%     -    0s
     0     0  249.95455    0   20  117.00000  249.95455   114%     -    0s
     0     0  249.95455    0   14  117.00000  249.95455   114%     -    0s
     0     0  235.63636    0   20  117.00000  235.63636   101%     -    0s
     0     0  235.63636    0   20  117.00000  235.63636   101%     -    0s
     0     0  235.63636    0   20  117.00000  235.63636   101%     -    0s
     0     0  234.95455    0   21  117.00000  234.95455   101%     -    0s
     0     0  234.95455    0   14  117.00000  234.95455   101%     -    0s
     0     0  232.00000    0   14  117.00000  232.00000  98.3%     -    0s
     0     0  232.00000    0   14  117.00000  232.00000  98.3%     -    0s
     0     2  232.00000    0   14  117.00000  232.00000  98.3%     -    0s

Cutting planes:
  Gomory: 4
  Cover: 60
  MIR: 6
  Inf proof: 95
  Zero half: 5

Explored 6554 nodes (432182 simplex iterations) in 2.85 seconds (4.52 work units)
Thread count was 16 (of 16 available processors)

Solution count 4: 117 87 72 42 

Optimal solution found (tolerance 1.00e-04)
Best objective 1.170000000000e+02, best bound 1.170000000000e+02, gap 0.0000%

Wrote result file '/root/bgw/data/results/2026_03_24_20_47_55_set_vm-3-t3_vm-3-t3_s014_g001_max.sol'

